
Gurobi 6.5.2 (win64) logging started 07/23/16 02:52:42


Gurobi 6.5.2 (win64) logging started 07/23/16 02:52:42

Optimize a model with 22090 rows, 1460 columns and 47893 nonzeros
Coefficient statistics:
  Matrix range    [4e-06, 1e+03]
  Objective range [1e+00, 1e+00]
  Bounds range    [1e+00, 1e+00]
  RHS range       [1e+00, 1e+03]
Found heuristic solution: objective 3.81455e+06
Presolve removed 22063 rows and 1434 columns
Presolve time: 0.01s
Presolved: 27 rows, 26 columns, 82 nonzeros
Variable types: 26 continuous, 0 integer (0 binary)

Root relaxation: objective 2.013616e+02, 19 iterations, 0.00 seconds

    Nodes    |    Current Node    |     Objective Bounds      |     Work
 Expl Unexpl |  Obj  Depth IntInf | Incumbent    BestBd   Gap | It/Node Time

*    0     0               0     201.3616234  201.36162  0.00%     -    0s

Explored 0 nodes (19 simplex iterations) in 0.01 seconds
Thread count was 8 (of 8 available processors)

Optimal solution found (tolerance 1.00e-04)
Best objective 2.013616233864e+02, best bound 2.013616233864e+02, gap 0.0%

Wrote requested result file 'H2\instance14\\Results14EC_Sol5.lp'

